DIMENSION :21
NODE_COORD_SECTION
1 -31.31686119079437 -95.73170016003066
2 46.926933896706174 71.77814255401535
3 3.966733153860318 -57.3581123534757
4 93.85906184666732 68.84162377498842
5 -52.72872655265106 -86.86028838981534
6 70.95941507648166 50.97814219005551
7 -87.72402456077455 -29.256713860860884
8 -88.79925732184873 -83.17435338192551
9 44.8746738949925 47.02606606649306
10 49.03952258092724 37.515068992588084
11 12.49627544302767 -23.344583941735934
12 -64.33003725133378 96.08780293962741
13 39.20866513070399 -63.27946540872602
14 35.47708216139981 -77.55513397958258
15 32.681390570881746 89.93250370277079
16 -58.3411784194051 -86.20040125656338
17 78.1843195879182 -21.593341015439236
18 -6.286248637737657 -73.10503510504239
19 -14.849354255613534 1.6515200102514456
20 -94.53256199470074 55.7854372122398
21 63.434486853813496 30.552649149546795
EOF
